33D32945 STP File, STP Format Version 1.0

SECTION Comments
Name "shell_n13_d2_s17"
Problem "Euclidean Steiner Tree Problem"
Remark "Generated with STPGenerator. 2 dimensions."
END

SECTION Graph
Nodes 13
END

SECTION Coordinates
DD 0 0.7924818790 -0.6098954594
DD 1 -0.9993710995 -0.0354599135
DD 2 0.3719651547 0.9282466933
DD 3 0.4040407016 -0.9147410079
DD 4 -0.8048419293 -0.5934892323
DD 5 0.7644709179 0.6446582161
DD 6 0.5280145177 -0.8492353437
DD 7 0.7636981703 0.6455734696
DD 8 -0.9549846569 0.2966551956
DD 9 -0.4655505770 0.8850212767
DD 10 -0.0805875967 -0.9967475304
DD 11 -0.9584647155 0.2852111308
DD 12 -0.9972677985 -0.0738710911
END
